(set-option :print-success true)
(set-option :produce-models true)
(set-logic ALL)
(declare-sort Unspecified 0)
(declare-sort Unit 0)
(declare-const loaded_value_0 (_ BitVec 64))
(declare-const clif_load_active_1 Bool)
(declare-const clif_load_size_bits_2 Int)
(declare-const clif_load_addr_3 (_ BitVec 64))
(declare-const clif_store_active_4 Bool)
(declare-const clif_store_size_bits_5 Int)
(declare-const clif_store_addr_6 (_ BitVec 64))
(declare-const clif_store_value_7 (_ BitVec 64))
(declare-const clif_trap_8 Bool)
(declare-const isa_load_active_9 Bool)
(declare-const isa_load_size_bits_10 Int)
(declare-const isa_load_addr_11 (_ BitVec 64))
(declare-const isa_store_active_12 Bool)
(declare-const isa_store_size_bits_13 Int)
(declare-const isa_store_addr_14 (_ BitVec 64))
(declare-const isa_store_value_15 (_ BitVec 64))
(declare-const b0_16 (_ BitVec 1))
(declare-const b3_some_17 Bool)
(declare-const b3_inner_0_aligned_18 Bool)
(declare-const b3_inner_0_trapcode_19 (_ BitVec 4))
(declare-const b3_inner_1_20 (_ BitVec 16))
(declare-const b3_inner_2_21 (_ BitVec 64))
(declare-const b3_inner_3_22 (_ BitVec 32))
(declare-const e23 Bool)
(assert (! (= e23 true) :named expr23))
(declare-const e24 Int)
(assert (! (= e24 16) :named expr24))
(declare-const e25 Bool)
(assert (! (= e25 (= clif_store_size_bits_5 e24)) :named expr25))
(declare-const e26 Int)
(assert (! (= e26 64) :named expr26))
(declare-const e27 (_ BitVec 64))
(assert (! (= e27 ((_ sign_extend 32) b3_inner_3_22)) :named expr27))
(declare-const e28 (_ BitVec 64))
(assert (! (= e28 (bvadd b3_inner_2_21 e27)) :named expr28))
(declare-const e29 Bool)
(assert (! (= e29 (= clif_store_addr_6 e28)) :named expr29))
(declare-const e30 (_ BitVec 16))
(assert (! (= e30 ((_ extract 15 0) clif_store_value_7)) :named expr30))
(declare-const e31 Bool)
(assert (! (= e31 (= e30 b3_inner_1_20)) :named expr31))
(declare-const e32 Bool)
(assert (! (= e32 (and e29 e31)) :named expr32))
(declare-const e33 Bool)
(assert (! (= e33 (and e25 e32)) :named expr33))
(declare-const e34 Bool)
(assert (! (= e34 (and clif_store_active_4 e33)) :named expr34))
(declare-const e35 (_ BitVec 1))
(assert (! (= e35 #b1) :named expr35))
(declare-const e36 Bool)
(assert (! (= e36 (= b0_16 e35)) :named expr36))
(declare-const e37 Bool)
(assert (! (= e37 (and e34 e36)) :named expr37))
(declare-const e38 Bool)
(assert (! (= e38 (= b3_some_17 e23)) :named expr38))
(declare-const e39 Bool)
(assert (! (= e39 (=> e23 e37)) :named expr39))
(declare-const b4_0_aligned_40 Bool)
(declare-const b4_0_trapcode_41 (_ BitVec 4))
(declare-const b4_1_42 (_ BitVec 16))
(declare-const b4_2_43 (_ BitVec 64))
(declare-const b4_3_44 (_ BitVec 32))
(declare-const e45 Bool)
(assert (! (= e45 (= b4_0_aligned_40 b3_inner_0_aligned_18)) :named expr45))
(declare-const e46 Bool)
(assert (! (= e46 (= b4_0_trapcode_41 b3_inner_0_trapcode_19)) :named expr46))
(declare-const e47 Bool)
(assert (! (= e47 (and e45 e46)) :named expr47))
(declare-const e48 Bool)
(assert (! (= e48 (= b4_1_42 b3_inner_1_20)) :named expr48))
(declare-const e49 Bool)
(assert (! (= e49 (= b4_2_43 b3_inner_2_21)) :named expr49))
(declare-const e50 Bool)
(assert (! (= e50 (= b4_3_44 b3_inner_3_22)) :named expr50))
(declare-const e51 Bool)
(assert (! (= e51 (and e47 e48)) :named expr51))
(declare-const e52 Bool)
(assert (! (= e52 (and e51 e49)) :named expr52))
(declare-const e53 Bool)
(assert (! (= e53 (and e52 e50)) :named expr53))
(declare-const e54 Bool)
(assert (! (= e54 (=> b3_some_17 e53)) :named expr54))
(declare-const b5_55 (_ BitVec 16))
(declare-const e56 Bool)
(assert (! (= e56 (= b5_55 b4_1_42)) :named expr56))
(declare-const b6_bits_57 Int)
(declare-const e58 Int)
(assert (! (= e58 16) :named expr58))
(declare-const e59 Bool)
(assert (! (= e59 (= b6_bits_57 e58)) :named expr59))
(declare-const b7_some_60 Bool)
(declare-const b7_inner_bits_61 Int)
(declare-const e62 Bool)
(assert (! (= e62 (= b6_bits_57 b7_inner_bits_61)) :named expr62))
(declare-const e63 Bool)
(assert (! (= e63 (= b7_some_60 e23)) :named expr63))
(declare-const e64 Bool)
(assert (! (= e64 (=> e23 e62)) :named expr64))
(declare-const b8_aligned_65 Bool)
(declare-const b8_trapcode_66 (_ BitVec 4))
(declare-const e67 Bool)
(assert (! (= e67 (= b8_aligned_65 b4_0_aligned_40)) :named expr67))
(declare-const e68 Bool)
(assert (! (= e68 (= b8_trapcode_66 b4_0_trapcode_41)) :named expr68))
(declare-const e69 Bool)
(assert (! (= e69 (and e67 e68)) :named expr69))
(declare-const b9_70 (_ BitVec 64))
(declare-const e71 Bool)
(assert (! (= e71 (= b9_70 b4_2_43)) :named expr71))
(declare-const b10_72 (_ BitVec 32))
(declare-const e73 Bool)
(assert (! (= e73 (= b10_72 b4_3_44)) :named expr73))
(declare-const b12_74 (_ BitVec 64))
(declare-const b81_addr_75 (_ BitVec 64))
(declare-const b81_flags_aligned_76 Bool)
(declare-const b81_flags_trapcode_77 (_ BitVec 4))
(declare-const b80_78 (_ BitVec 32))
(declare-const b46_79 (_ BitVec 32))
(declare-const b45_80 (_ BitVec 32))
(declare-const b44_some_81 Bool)
(declare-const b44_inner_82 (_ BitVec 32))
(declare-const b42_83 (_ BitVec 32))
(declare-const e84 Bool)
(assert (! (= e84 (= b42_83 b10_72)) :named expr84))
(declare-const b43_85 (_ BitVec 32))
(declare-const b41_some_86 Bool)
(declare-const b41_inner_87 (_ BitVec 32))
(declare-const b34_88 (_ BitVec 64))
(declare-const b33_0_bits_89 Int)
(declare-const b33_1_90 (_ BitVec 64))
(declare-const b33_2_91 (_ BitVec 64))
(declare-const b32_some_92 Bool)
(declare-const b32_inner_0_bits_93 Int)
(declare-const b32_inner_1_94 (_ BitVec 64))
(declare-const b32_inner_2_95 (_ BitVec 64))
(declare-const b31_96 (_ BitVec 64))
(declare-const b30_some_97 Bool)
(declare-const b30_inner_98 (_ BitVec 64))
(declare-const e99 Bool)
(assert (! (= e99 (= b9_70 b30_inner_98)) :named expr99))
(declare-const e100 Bool)
(assert (! (= e100 (= b30_some_97 e23)) :named expr100))
(declare-const e101 Bool)
(assert (! (= e101 (=> e23 e99)) :named expr101))
(declare-const e102 Bool)
(assert (! (= e102 (= b31_96 b30_inner_98)) :named expr102))
(declare-const e103 Bool)
(assert (! (= e103 (=> b30_some_97 e102)) :named expr103))
(declare-const e104 (_ BitVec 64))
(assert (! (= e104 (bvadd b32_inner_1_94 b32_inner_2_95)) :named expr104))
(declare-const e105 Bool)
(assert (! (= e105 (= b31_96 e104)) :named expr105))
(declare-const e106 Bool)
(assert (! (= e106 (= b32_some_92 e23)) :named expr106))
(declare-const e107 Bool)
(assert (! (= e107 (=> e23 e105)) :named expr107))
(declare-const e108 Bool)
(assert (! (= e108 (= b33_0_bits_89 b32_inner_0_bits_93)) :named expr108))
(declare-const e109 Bool)
(assert (! (= e109 (= b33_1_90 b32_inner_1_94)) :named expr109))
(declare-const e110 Bool)
(assert (! (= e110 (= b33_2_91 b32_inner_2_95)) :named expr110))
(declare-const e111 Bool)
(assert (! (= e111 (and e108 e109)) :named expr111))
(declare-const e112 Bool)
(assert (! (= e112 (and e111 e110)) :named expr112))
(declare-const e113 Bool)
(assert (! (= e113 (=> b32_some_92 e112)) :named expr113))
(declare-const e114 Bool)
(assert (! (= e114 (= b34_88 b33_1_90)) :named expr114))
(declare-const e115 (_ BitVec 64))
(assert (! (= e115 b34_88) :named expr115))
(declare-const e116 (_ BitVec 64))
(assert (! (= e116 #b0000000000000000000000000000000001111111111111111111111111111111) :named expr116))
(declare-const e117 Bool)
(assert (! (= e117 (bvsle e115 e116)) :named expr117))
(declare-const e118 (_ BitVec 64))
(assert (! (= e118 #b0000000000000000000000000000000010000000000000000000000000000000) :named expr118))
(declare-const e119 (_ BitVec 64))
(assert (! (= e119 (bvneg e118)) :named expr119))
(declare-const e120 Bool)
(assert (! (= e120 (bvsle e119 e115)) :named expr120))
(declare-const e121 (_ BitVec 32))
(assert (! (= e121 ((_ extract 31 0) e115)) :named expr121))
(declare-const e122 Bool)
(assert (! (= e122 (= b41_inner_87 e121)) :named expr122))
(declare-const e123 Bool)
(assert (! (= e123 (and e117 e120)) :named expr123))
(declare-const e124 Bool)
(assert (! (= e124 (= b41_some_86 e123)) :named expr124))
(declare-const e125 Bool)
(assert (! (= e125 (=> e123 e122)) :named expr125))
(declare-const e126 Bool)
(assert (! (= e126 (= b43_85 b41_inner_87)) :named expr126))
(declare-const e127 Bool)
(assert (! (= e127 (=> b41_some_86 e126)) :named expr127))
(declare-const e128 Bool)
(assert (! (= e128 (bvsaddo b42_83 b43_85)) :named expr128))
(declare-const e129 Bool)
(assert (! (= e129 (not e128)) :named expr129))
(declare-const e130 (_ BitVec 32))
(assert (! (= e130 (bvadd b42_83 b43_85)) :named expr130))
(declare-const e131 Bool)
(assert (! (= e131 (= b44_inner_82 e130)) :named expr131))
(declare-const e132 Bool)
(assert (! (= e132 (= b44_some_81 e129)) :named expr132))
(declare-const e133 Bool)
(assert (! (= e133 (=> e129 e131)) :named expr133))
(declare-const e134 Bool)
(assert (! (= e134 (= b45_80 b44_inner_82)) :named expr134))
(declare-const e135 Bool)
(assert (! (= e135 (=> b44_some_81 e134)) :named expr135))
(declare-const e136 Bool)
(assert (! (= e136 (= b46_79 b45_80)) :named expr136))
(declare-const e137 Bool)
(assert (! (= e137 (= b80_78 b46_79)) :named expr137))
(declare-const b77_138 (_ BitVec 64))
(declare-const b55_139 (_ BitVec 64))
(declare-const b54_0_bits_140 Int)
(declare-const b54_1_141 (_ BitVec 64))
(declare-const b54_2_142 (_ BitVec 64))
(declare-const b53_some_143 Bool)
(declare-const b53_inner_0_bits_144 Int)
(declare-const b53_inner_1_145 (_ BitVec 64))
(declare-const b53_inner_2_146 (_ BitVec 64))
(declare-const b52_147 (_ BitVec 64))
(declare-const b51_some_148 Bool)
(declare-const b51_inner_149 (_ BitVec 64))
(declare-const b35_150 (_ BitVec 64))
(declare-const e151 Bool)
(assert (! (= e151 (= b35_150 b33_2_91)) :named expr151))
(declare-const e152 Bool)
(assert (! (= e152 (= b35_150 b51_inner_149)) :named expr152))
(declare-const e153 Bool)
(assert (! (= e153 (= b51_some_148 e23)) :named expr153))
(declare-const e154 Bool)
(assert (! (= e154 (=> e23 e152)) :named expr154))
(declare-const e155 Bool)
(assert (! (= e155 (= b52_147 b51_inner_149)) :named expr155))
(declare-const e156 Bool)
(assert (! (= e156 (=> b51_some_148 e155)) :named expr156))
(declare-const e157 (_ BitVec 64))
(assert (! (= e157 (bvadd b53_inner_1_145 b53_inner_2_146)) :named expr157))
(declare-const e158 Bool)
(assert (! (= e158 (= b52_147 e157)) :named expr158))
(declare-const e159 Bool)
(assert (! (= e159 (= b53_some_143 e23)) :named expr159))
(declare-const e160 Bool)
(assert (! (= e160 (=> e23 e158)) :named expr160))
(declare-const e161 Bool)
(assert (! (= e161 (= b54_0_bits_140 b53_inner_0_bits_144)) :named expr161))
(declare-const e162 Bool)
(assert (! (= e162 (= b54_1_141 b53_inner_1_145)) :named expr162))
(declare-const e163 Bool)
(assert (! (= e163 (= b54_2_142 b53_inner_2_146)) :named expr163))
(declare-const e164 Bool)
(assert (! (= e164 (and e161 e162)) :named expr164))
(declare-const e165 Bool)
(assert (! (= e165 (and e164 e163)) :named expr165))
(declare-const e166 Bool)
(assert (! (= e166 (=> b53_some_143 e165)) :named expr166))
(declare-const e167 Bool)
(assert (! (= e167 (= b55_139 b54_1_141)) :named expr167))
(declare-const e168 (_ BitVec 64))
(assert (! (= e168 b55_139) :named expr168))
(declare-const e169 Bool)
(assert (! (= e169 (= b77_138 e168)) :named expr169))
(declare-const b79_170 (_ BitVec 64))
(declare-const b78_171 (_ BitVec 64))
(declare-const b65_0_bits_172 Int)
(declare-const b65_1_173 (_ BitVec 64))
(declare-const b65_2_174 (_ BitVec 64))
(declare-const b64_some_175 Bool)
(declare-const b64_inner_0_bits_176 Int)
(declare-const b64_inner_1_177 (_ BitVec 64))
(declare-const b64_inner_2_178 (_ BitVec 64))
(declare-const b63_179 (_ BitVec 64))
(declare-const b62_some_180 Bool)
(declare-const b62_inner_181 (_ BitVec 64))
(declare-const b56_182 (_ BitVec 64))
(declare-const e183 Bool)
(assert (! (= e183 (= b56_182 b54_2_142)) :named expr183))
(declare-const e184 Bool)
(assert (! (= e184 (= b56_182 b62_inner_181)) :named expr184))
(declare-const e185 Bool)
(assert (! (= e185 (= b62_some_180 e23)) :named expr185))
(declare-const e186 Bool)
(assert (! (= e186 (=> e23 e184)) :named expr186))
(declare-const e187 Bool)
(assert (! (= e187 (= b63_179 b62_inner_181)) :named expr187))
(declare-const e188 Bool)
(assert (! (= e188 (=> b62_some_180 e187)) :named expr188))
(declare-const e189 Int)
(assert (! (= e189 64) :named expr189))
(declare-const e190 (_ BitVec 64))
(assert (! (= e190 ((_ int2bv 64) e189)) :named expr190))
(declare-const e191 (_ BitVec 64))
(assert (! (= e191 #b0000000000000000000000000000000000000000000000000000000000000001) :named expr191))
(declare-const e192 (_ BitVec 64))
(assert (! (= e192 (bvsub e190 e191)) :named expr192))
(declare-const e193 (_ BitVec 64))
(assert (! (= e193 e192) :named expr193))
(declare-const e194 (_ BitVec 64))
(assert (! (= e194 (bvand b64_inner_2_178 e193)) :named expr194))
(declare-const e195 (_ BitVec 64))
(assert (! (= e195 (bvshl b64_inner_1_177 e194)) :named expr195))
(declare-const e196 Bool)
(assert (! (= e196 (= b63_179 e195)) :named expr196))
(declare-const e197 Bool)
(assert (! (= e197 (= b64_some_175 e23)) :named expr197))
(declare-const e198 Bool)
(assert (! (= e198 (=> e23 e196)) :named expr198))
(declare-const e199 Bool)
(assert (! (= e199 (= b65_0_bits_172 b64_inner_0_bits_176)) :named expr199))
(declare-const e200 Bool)
(assert (! (= e200 (= b65_1_173 b64_inner_1_177)) :named expr200))
(declare-const e201 Bool)
(assert (! (= e201 (= b65_2_174 b64_inner_2_178)) :named expr201))
(declare-const e202 Bool)
(assert (! (= e202 (and e199 e200)) :named expr202))
(declare-const e203 Bool)
(assert (! (= e203 (and e202 e201)) :named expr203))
(declare-const e204 Bool)
(assert (! (= e204 (=> b64_some_175 e203)) :named expr204))
(declare-const e205 Bool)
(assert (! (= e205 (= b78_171 b65_1_173)) :named expr205))
(declare-const e206 (_ BitVec 64))
(assert (! (= e206 b78_171) :named expr206))
(declare-const e207 Bool)
(assert (! (= e207 (= b79_170 e206)) :named expr207))
(declare-const b73_208 (_ BitVec 8))
(declare-const b72_some_209 Bool)
(declare-const b72_inner_210 (_ BitVec 8))
(declare-const b71_211 (_ BitVec 64))
(declare-const b70_0_bits_212 Int)
(declare-const b70_1_213 (_ BitVec 64))
(declare-const b69_some_214 Bool)
(declare-const b69_inner_0_bits_215 Int)
(declare-const b69_inner_1_216 (_ BitVec 64))
(declare-const b68_217 (_ BitVec 64))
(declare-const b67_some_218 Bool)
(declare-const b67_inner_219 (_ BitVec 64))
(declare-const b66_220 (_ BitVec 64))
(declare-const e221 Bool)
(assert (! (= e221 (= b66_220 b65_2_174)) :named expr221))
(declare-const e222 Bool)
(assert (! (= e222 (= b66_220 b67_inner_219)) :named expr222))
(declare-const e223 Bool)
(assert (! (= e223 (= b67_some_218 e23)) :named expr223))
(declare-const e224 Bool)
(assert (! (= e224 (=> e23 e222)) :named expr224))
(declare-const e225 Bool)
(assert (! (= e225 (= b68_217 b67_inner_219)) :named expr225))
(declare-const e226 Bool)
(assert (! (= e226 (=> b67_some_218 e225)) :named expr226))
(declare-const e227 (_ BitVec 64))
(assert (! (= e227 b68_217) :named expr227))
(declare-const e228 Bool)
(assert (! (= e228 (= b69_inner_1_216 e227)) :named expr228))
(declare-const e229 Bool)
(assert (! (= e229 (= b69_some_214 e23)) :named expr229))
(declare-const e230 Bool)
(assert (! (= e230 (=> e23 e228)) :named expr230))
(declare-const e231 Bool)
(assert (! (= e231 (= b70_0_bits_212 b69_inner_0_bits_215)) :named expr231))
(declare-const e232 Bool)
(assert (! (= e232 (= b70_1_213 b69_inner_1_216)) :named expr232))
(declare-const e233 Bool)
(assert (! (= e233 (and e231 e232)) :named expr233))
(declare-const e234 Bool)
(assert (! (= e234 (=> b69_some_214 e233)) :named expr234))
(declare-const e235 Bool)
(assert (! (= e235 (= b71_211 b70_1_213)) :named expr235))
(declare-const e236 (_ BitVec 64))
(assert (! (= e236 #b0000000000000000000000000000000000000000000000000000000000000000) :named expr236))
(declare-const e237 Bool)
(assert (! (= e237 (bvsge b71_211 e236)) :named expr237))
(declare-const e238 (_ BitVec 64))
(assert (! (= e238 #b0000000000000000000000000000000000000000000000000000000100000000) :named expr238))
(declare-const e239 Bool)
(assert (! (= e239 (bvslt b71_211 e238)) :named expr239))
(declare-const e240 (_ BitVec 64))
(assert (! (= e240 ((_ zero_extend 56) b72_inner_210)) :named expr240))
(declare-const e241 Bool)
(assert (! (= e241 (= b71_211 e240)) :named expr241))
(declare-const e242 Bool)
(assert (! (= e242 (and e237 e239)) :named expr242))
(declare-const e243 Bool)
(assert (! (= e243 (= b72_some_209 e242)) :named expr243))
(declare-const e244 Bool)
(assert (! (= e244 (=> e242 e241)) :named expr244))
(declare-const e245 Bool)
(assert (! (= e245 (= b73_208 b72_inner_210)) :named expr245))
(declare-const e246 Bool)
(assert (! (= e246 (=> b72_some_209 e245)) :named expr246))
(declare-const e247 (_ BitVec 64))
(assert (! (= e247 ((_ sign_extend 32) b80_78)) :named expr247))
(declare-const e248 (_ BitVec 64))
(assert (! (= e248 (bvadd b77_138 e247)) :named expr248))
(declare-const e249 (_ BitVec 64))
(assert (! (= e249 ((_ zero_extend 56) b73_208)) :named expr249))
(declare-const e250 (_ BitVec 64))
(assert (! (= e250 (bvshl b79_170 e249)) :named expr250))
(declare-const e251 (_ BitVec 64))
(assert (! (= e251 (bvadd e248 e250)) :named expr251))
(declare-const e252 Bool)
(assert (! (= e252 (= b81_addr_75 e251)) :named expr252))
(declare-const e253 Bool)
(assert (! (= e253 (= b81_flags_aligned_76 b8_aligned_65)) :named expr253))
(declare-const e254 Bool)
(assert (! (= e254 (= b81_flags_trapcode_77 b8_trapcode_66)) :named expr254))
(declare-const e255 Bool)
(assert (! (= e255 (and e253 e254)) :named expr255))
(declare-const e256 Bool)
(assert (! (= e256 (= b12_74 b81_addr_75)) :named expr256))
(declare-const b13_257 (_ BitVec 64))
(declare-const e258 (_ BitVec 64))
(declare-const $conv_to_padding0 (_ BitVec 48))
(assert (! (= e258 (concat $conv_to_padding0 b5_55)) :named expr258))
(declare-const e259 Bool)
(assert (! (= e259 (= b13_257 e258)) :named expr259))
(declare-const b14_bits_260 Int)
(declare-const e261 Bool)
(assert (! (= e261 (= b14_bits_260 b7_inner_bits_61)) :named expr261))
(declare-const e262 Bool)
(assert (! (= e262 (=> b7_some_60 e261)) :named expr262))
(declare-const b17_some_263 Bool)
(declare-const b17_inner_264 (_ BitVec 1))
(declare-const b20_265 (_ BitVec 1))
(declare-const e266 Bool)
(assert (! (= e266 (= b20_265 e35)) :named expr266))
(declare-const e267 Bool)
(assert (! (= e267 (= b20_265 b17_inner_264)) :named expr267))
(declare-const b19_268 (_ BitVec 1))
(declare-const b26_discriminant_269 Int)
(declare-const b26_Inst_inst_270 (_ BitVec 1))
(declare-const b26_Inst2_inst1_271 (_ BitVec 1))
(declare-const b26_Inst2_inst2_272 (_ BitVec 1))
(declare-const b26_Inst3_inst1_273 (_ BitVec 1))
(declare-const b26_Inst3_inst2_274 (_ BitVec 1))
(declare-const b26_Inst3_inst3_275 (_ BitVec 1))
(declare-const e276 Int)
(assert (! (= e276 0) :named expr276))
(declare-const e277 Int)
(assert (! (= e277 3) :named expr277))
(declare-const e278 Bool)
(assert (! (= e278 (<= e276 b26_discriminant_269)) :named expr278))
(declare-const e279 Bool)
(assert (! (= e279 (< b26_discriminant_269 e277)) :named expr279))
(declare-const e280 Bool)
(assert (! (= e280 (and e278 e279)) :named expr280))
(declare-const b25_281 (_ BitVec 1))
(declare-const b24_discriminant_282 Int)
(declare-const e283 Int)
(assert (! (= e283 4) :named expr283))
(declare-const e284 Bool)
(assert (! (= e284 (<= e276 b24_discriminant_282)) :named expr284))
(declare-const e285 Bool)
(assert (! (= e285 (< b24_discriminant_282 e283)) :named expr285))
(declare-const e286 Bool)
(assert (! (= e286 (and e284 e285)) :named expr286))
(declare-const e287 Int)
(assert (! (= e287 8) :named expr287))
(declare-const e288 Bool)
(assert (! (= e288 (= b14_bits_260 e287)) :named expr288))
(declare-const e289 Bool)
(assert (! (= e289 (<= e276 e276)) :named expr289))
(declare-const e290 Bool)
(assert (! (= e290 (< e276 e283)) :named expr290))
(declare-const e291 Bool)
(assert (! (= e291 (and e289 e290)) :named expr291))
(declare-const e292 Int)
(assert (! (= e292 16) :named expr292))
(declare-const e293 Bool)
(assert (! (= e293 (= b14_bits_260 e292)) :named expr293))
(declare-const e294 Int)
(assert (! (= e294 1) :named expr294))
(declare-const e295 Bool)
(assert (! (= e295 (<= e276 e294)) :named expr295))
(declare-const e296 Bool)
(assert (! (= e296 (< e294 e283)) :named expr296))
(declare-const e297 Bool)
(assert (! (= e297 (and e295 e296)) :named expr297))
(declare-const e298 Int)
(assert (! (= e298 32) :named expr298))
(declare-const e299 Bool)
(assert (! (= e299 (= b14_bits_260 e298)) :named expr299))
(declare-const e300 Int)
(assert (! (= e300 2) :named expr300))
(declare-const e301 Bool)
(assert (! (= e301 (<= e276 e300)) :named expr301))
(declare-const e302 Bool)
(assert (! (= e302 (< e300 e283)) :named expr302))
(declare-const e303 Bool)
(assert (! (= e303 (and e301 e302)) :named expr303))
(declare-const e304 Bool)
(assert (! (= e304 (= b14_bits_260 e26)) :named expr304))
(declare-const e305 Bool)
(assert (! (= e305 (<= e276 e277)) :named expr305))
(declare-const e306 Bool)
(assert (! (= e306 (< e277 e283)) :named expr306))
(declare-const e307 Bool)
(assert (! (= e307 (and e305 e306)) :named expr307))
(declare-const undef_308 Int)
(declare-const e309 Int)
(assert (! (= e309 (ite e304 e277 undef_308)) :named expr309))
(declare-const e310 Int)
(assert (! (= e310 (ite e299 e300 e309)) :named expr310))
(declare-const e311 Int)
(assert (! (= e311 (ite e293 e294 e310)) :named expr311))
(declare-const e312 Int)
(assert (! (= e312 (ite e288 e276 e311)) :named expr312))
(declare-const e313 Bool)
(assert (! (= e313 (= b24_discriminant_282 e312)) :named expr313))
(declare-const e314 Bool)
(assert (! (= e314 (= b24_discriminant_282 e276)) :named expr314))
(declare-const e315 Bool)
(assert (! (= e315 (=> e314 e23)) :named expr315))
(declare-const e316 Bool)
(assert (! (= e316 (= b24_discriminant_282 e294)) :named expr316))
(declare-const e317 Bool)
(assert (! (= e317 (=> e316 e23)) :named expr317))
(declare-const e318 Bool)
(assert (! (= e318 (= b24_discriminant_282 e300)) :named expr318))
(declare-const e319 Bool)
(assert (! (= e319 (=> e318 e23)) :named expr319))
(declare-const e320 Bool)
(assert (! (= e320 (= b24_discriminant_282 e277)) :named expr320))
(declare-const e321 Bool)
(assert (! (= e321 (=> e320 e23)) :named expr321))
(declare-const e322 Bool)
(assert (! (= e322 (and e313 e315)) :named expr322))
(declare-const e323 Bool)
(assert (! (= e323 (and e322 e317)) :named expr323))
(declare-const e324 Bool)
(assert (! (= e324 (and e323 e319)) :named expr324))
(declare-const e325 Bool)
(assert (! (= e325 (and e324 e321)) :named expr325))
(declare-const e326 Bool)
(assert (! (= e326 (= isa_store_active_12 e23)) :named expr326))
(declare-const e327 Bool)
(assert (! (= e327 (and e314 e315)) :named expr327))
(declare-const e328 Bool)
(assert (! (= e328 (and e327 e317)) :named expr328))
(declare-const e329 Bool)
(assert (! (= e329 (and e328 e319)) :named expr329))
(declare-const e330 Bool)
(assert (! (= e330 (and e329 e321)) :named expr330))
(declare-const e331 Bool)
(assert (! (= e331 (and e316 e315)) :named expr331))
(declare-const e332 Bool)
(assert (! (= e332 (and e331 e317)) :named expr332))
(declare-const e333 Bool)
(assert (! (= e333 (and e332 e319)) :named expr333))
(declare-const e334 Bool)
(assert (! (= e334 (and e333 e321)) :named expr334))
(declare-const e335 Bool)
(assert (! (= e335 (and e318 e315)) :named expr335))
(declare-const e336 Bool)
(assert (! (= e336 (and e335 e317)) :named expr336))
(declare-const e337 Bool)
(assert (! (= e337 (and e336 e319)) :named expr337))
(declare-const e338 Bool)
(assert (! (= e338 (and e337 e321)) :named expr338))
(declare-const e339 Bool)
(assert (! (= e339 (and e320 e315)) :named expr339))
(declare-const e340 Bool)
(assert (! (= e340 (and e339 e317)) :named expr340))
(declare-const e341 Bool)
(assert (! (= e341 (and e340 e319)) :named expr341))
(declare-const e342 Bool)
(assert (! (= e342 (and e341 e321)) :named expr342))
(declare-const undef_343 Int)
(declare-const e344 Int)
(assert (! (= e344 (ite e342 e26 undef_343)) :named expr344))
(declare-const e345 Int)
(assert (! (= e345 (ite e338 e298 e344)) :named expr345))
(declare-const e346 Int)
(assert (! (= e346 (ite e334 e292 e345)) :named expr346))
(declare-const e347 Int)
(assert (! (= e347 (ite e330 e287 e346)) :named expr347))
(declare-const e348 Bool)
(assert (! (= e348 (= isa_store_size_bits_13 e347)) :named expr348))
(declare-const e349 Bool)
(assert (! (= e349 (= isa_store_addr_14 b12_74)) :named expr349))
(declare-const e350 Bool)
(assert (! (= e350 (= isa_store_value_15 b13_257)) :named expr350))
(declare-const undef_Inst2_inst1_351 (_ BitVec 1))
(declare-const undef_Inst2_inst2_352 (_ BitVec 1))
(declare-const undef_Inst3_inst1_353 (_ BitVec 1))
(declare-const undef_Inst3_inst2_354 (_ BitVec 1))
(declare-const undef_Inst3_inst3_355 (_ BitVec 1))
(declare-const e356 Bool)
(assert (! (= e356 (< e276 e277)) :named expr356))
(declare-const e357 Bool)
(assert (! (= e357 (and e289 e356)) :named expr357))
(declare-const e358 Bool)
(assert (! (= e358 (= b26_discriminant_269 e276)) :named expr358))
(declare-const e359 Bool)
(assert (! (= e359 (= b26_Inst_inst_270 b25_281)) :named expr359))
(declare-const e360 Bool)
(assert (! (= e360 (=> e358 e359)) :named expr360))
(declare-const e361 Bool)
(assert (! (= e361 (= b26_discriminant_269 e294)) :named expr361))
(declare-const e362 Bool)
(assert (! (= e362 (= b26_Inst2_inst1_271 undef_Inst2_inst1_351)) :named expr362))
(declare-const e363 Bool)
(assert (! (= e363 (= b26_Inst2_inst2_272 undef_Inst2_inst2_352)) :named expr363))
(declare-const e364 Bool)
(assert (! (= e364 (and e362 e363)) :named expr364))
(declare-const e365 Bool)
(assert (! (= e365 (=> e361 e364)) :named expr365))
(declare-const e366 Bool)
(assert (! (= e366 (= b26_discriminant_269 e300)) :named expr366))
(declare-const e367 Bool)
(assert (! (= e367 (= b26_Inst3_inst1_273 undef_Inst3_inst1_353)) :named expr367))
(declare-const e368 Bool)
(assert (! (= e368 (= b26_Inst3_inst2_274 undef_Inst3_inst2_354)) :named expr368))
(declare-const e369 Bool)
(assert (! (= e369 (= b26_Inst3_inst3_275 undef_Inst3_inst3_355)) :named expr369))
(declare-const e370 Bool)
(assert (! (= e370 (and e367 e368)) :named expr370))
(declare-const e371 Bool)
(assert (! (= e371 (and e370 e369)) :named expr371))
(declare-const e372 Bool)
(assert (! (= e372 (=> e366 e371)) :named expr372))
(declare-const e373 Bool)
(assert (! (= e373 (and e358 e360)) :named expr373))
(declare-const e374 Bool)
(assert (! (= e374 (and e373 e365)) :named expr374))
(declare-const e375 Bool)
(assert (! (= e375 (and e374 e372)) :named expr375))
(declare-const b74_376 (_ BitVec 32))
(declare-const e377 (_ BitVec 32))
(assert (! (= e377 ((_ zero_extend 24) b73_208)) :named expr377))
(declare-const e378 Bool)
(assert (! (= e378 (= b74_376 e377)) :named expr378))
(declare-const b75_379 (_ BitVec 32))
(declare-const e380 (_ BitVec 32))
(assert (! (= e380 #b00000000000000000000000000000011) :named expr380))
(declare-const e381 Bool)
(assert (! (= e381 (= b75_379 e380)) :named expr381))
(declare-const b76_some_382 Bool)
(declare-const b76_inner_383 (_ BitVec 1))
(declare-const e384 Bool)
(assert (! (= e384 (bvule b74_376 b75_379)) :named expr384))
(declare-const e385 Bool)
(assert (! (= e385 (= b76_inner_383 e35)) :named expr385))
(declare-const e386 Bool)
(assert (! (= e386 (= b76_some_382 e384)) :named expr386))
(declare-const e387 Bool)
(assert (! (= e387 (=> e384 e385)) :named expr387))
(declare-const e388 Bool)
(assert (! (= e388 (= b17_inner_264 b0_16)) :named expr388))
(declare-const e389 Bool)
(assert (! (= e389 (= b17_some_263 e23)) :named expr389))
(declare-const e390 Bool)
(assert (! (= e390 (=> e23 e388)) :named expr390))
(declare-const e391 Bool)
(assert (! (= e391 (not clif_load_active_1)) :named expr391))
(declare-const e392 Bool)
(assert (! (= e392 (not clif_store_active_4)) :named expr392))
(declare-const e393 Bool)
(assert (! (= e393 (= clif_store_size_bits_5 e294)) :named expr393))
(declare-const e394 Bool)
(assert (! (= e394 (and e392 e393)) :named expr394))
(declare-const e395 Bool)
(assert (! (= e395 (not e23)) :named expr395))
(declare-const e396 Bool)
(assert (! (= e396 (=> e395 e394)) :named expr396))
(declare-const e397 Bool)
(assert (! (= e397 (not clif_trap_8)) :named expr397))
(declare-const e398 Bool)
(assert (! (= e398 (not isa_load_active_9)) :named expr398))
(declare-const e399 Bool)
(assert (! (= e399 (not isa_store_active_12)) :named expr399))
(declare-const e400 Bool)
(assert (! (= e400 (= isa_store_size_bits_13 e294)) :named expr400))
(declare-const e401 Bool)
(assert (! (= e401 (and e399 e400)) :named expr401))
(declare-const e402 Bool)
(assert (! (= e402 (=> e395 e401)) :named expr402))
(push)
(assert (and e38 e39 e54 e56 e59 e63 e64 e69 e71 e73 e84 e100 e101 e103 e106 e107 e113 e114 e124 e125 e127 e132 e133 e135 e136 e137 e151 e153 e154 e156 e159 e160 e166 e167 e169 e183 e185 e186 e188 e197 e198 e204 e205 e207 e221 e223 e224 e226 e229 e230 e234 e235 e243 e244 e246 e252 e255 e256 e259 e262 e266 b17_some_263 e267 e280 e286 e291 e297 e303 e307 e325 e291 e297 e303 e307 e326 e348 e349 e350 e357 e375 e23 e378 e381 e386 e387 e389 b3_some_17 b7_some_60 b30_some_97 b32_some_92 b41_some_86 b44_some_81 b51_some_148 b53_some_143 b62_some_180 b64_some_175 b67_some_218 b69_some_214 b72_some_209 b76_some_382 e23 e391 e396 e397 e398 e402))
(check-sat)
(pop)
(push)
(assert (not (=> (and e38 e39 e54 e56 e59 e63 e64 e69 e71 e73 e84 e100 e101 e103 e106 e107 e113 e114 e124 e125 e127 e132 e133 e135 e136 e137 e151 e153 e154 e156 e159 e160 e166 e167 e169 e183 e185 e186 e188 e197 e198 e204 e205 e207 e221 e223 e224 e226 e229 e230 e234 e235 e243 e244 e246 e252 e255 e256 e259 e262 e266 b17_some_263 e267 e280 e286 e291 e297 e303 e307 e325 e291 e297 e303 e307 e326 e348 e349 e350 e357 e375 e23 e378 e381 e386 e387 e389 b3_some_17 b7_some_60 b30_some_97 b32_some_92 b41_some_86 b44_some_81 b51_some_148 b53_some_143 b62_some_180 b64_some_175 b67_some_218 b69_some_214 b72_some_209 b76_some_382 e23 e391 e396 e397 e398 e402) e390)))
(check-sat)
(pop)
(exit)
